rectOffsets = 
    [|0,0,3,3|0,0,3,3|0,0,3,4|0,0,4,3|0,0,3,5|0,0,5,3|0,0,3,6|0,0,6,3|0,0,3,9|0,0,9,3|];

shape = array1d(1..10, [{1}, {2}, {3}, {4}, {5}, {6}, {7}, {8}, {9}, {10}]);

validshapes = array1d(1..5, [{1,2}, {3,4}, {5,6}, {7,8}, {9,10}]);

dx = array1d(1..5, [3, 3, 3, 3, 3]);

dy = array1d(1..5, [3, 4, 5, 6, 9]);

w = 9;

n = 5;

o = 10;

